Sc4 Ga12 H2 N1                          
   1.00000000000000     
     5.8103230000000003    0.0000000000000000    0.0000000000000000
     2.9051619999999998    5.0318880000000004    0.0000000000000000
     0.0000000000000000    0.0000000000000000   22.1161640000000013
   Sc   Ga   H    N 
     4    12     2     1
Selective dynamics
Direct
  0.3333330000000032  0.3333330000000032  0.3391179999999991   F   F   F
  0.6673010000000019  0.6669130000000010  0.5509580000000014   F   F   F
  0.0000000000000000  0.0000000000000000  0.4463730000000012   F   F   F
  0.3314209999999989  0.3322190000000020  0.6649559999999965   F   F   F
  0.8333330000000032  0.3333330000000032  0.3391179999999991   F   F   F
  0.3333330000000032  0.8333330000000032  0.3391179999999991   F   F   F
  0.8333330000000032  0.8333330000000032  0.3391179999999991   F   F   F
  0.8375219999999999  0.3204860000000025  0.6615690000000001   F   F   F
  0.1667249999999996  0.6704069999999973  0.5540120000000002   F   F   F
  0.5000000000000000  0.0000000000000000  0.4463730000000012   F   F   F
  0.3225639999999999  0.8369410000000030  0.6617370000000022   F   F   F
  0.6666019999999975  0.1678759999999997  0.5534880000000015   F   F   F
  0.0000000000000000  0.5000000000000000  0.4463730000000012   F   F   F
  0.8396109999999979  0.8405940000000029  0.6605940000000032   F   F   F
  0.1634850000000014  0.1622739999999965  0.5544330000000031   F   F   F
  0.5000000000000000  0.5000000000000000  0.4463730000000012   F   F   F
  0.2780839999999998  0.2143319999999989  0.7833100000000002   T   T   T
  0.3573009999999996  0.4509199999999964  0.7842640000000003   T   T   T
  0.3199990000000028  0.3322670000000016  0.7556246840435804   T   T   T
 
  0.00000000E+00  0.00000000E+00  0.00000000E+00
  0.00000000E+00  0.00000000E+00  0.00000000E+00
  0.00000000E+00  0.00000000E+00  0.00000000E+00
  0.00000000E+00  0.00000000E+00  0.00000000E+00
  0.00000000E+00  0.00000000E+00  0.00000000E+00
  0.00000000E+00  0.00000000E+00  0.00000000E+00
  0.00000000E+00  0.00000000E+00  0.00000000E+00
  0.00000000E+00  0.00000000E+00  0.00000000E+00
  0.00000000E+00  0.00000000E+00  0.00000000E+00
  0.00000000E+00  0.00000000E+00  0.00000000E+00
  0.00000000E+00  0.00000000E+00  0.00000000E+00
  0.00000000E+00  0.00000000E+00  0.00000000E+00
  0.00000000E+00  0.00000000E+00  0.00000000E+00
  0.00000000E+00  0.00000000E+00  0.00000000E+00
  0.00000000E+00  0.00000000E+00  0.00000000E+00
  0.00000000E+00  0.00000000E+00  0.00000000E+00
  0.00000000E+00  0.00000000E+00  0.00000000E+00
  0.00000000E+00  0.00000000E+00  0.00000000E+00
  0.00000000E+00  0.00000000E+00  0.00000000E+00
