Y4 Sn12 N2                              
   1.00000000000000     
     6.6593689999999999    0.0000000000000000    0.0000000000000000
     3.3296850000000000    5.7671830000000002    0.0000000000000000
     0.0000000000000000    0.0000000000000000   23.1560279999999992
   Y    Sn   N 
     4    12     2
Selective dynamics
Direct
  0.3333330000000032  0.3333330000000032  0.3238899999999987   F   F   F
  0.6666669999999968  0.6666669999999968  0.5517400000000023   F   F   F
  0.0000000000000000  0.0000000000000000  0.4412969999999987   F   F   F
  0.3333330000000032  0.3333330000000032  0.6642039999999980   F   F   F
  0.8333330000000032  0.3333330000000032  0.3238899999999987   F   F   F
  0.3333330000000032  0.8333330000000032  0.3238899999999987   F   F   F
  0.8333330000000032  0.8333330000000032  0.3238899999999987   F   F   F
  0.8280839999999969  0.3438310000000016  0.6775850000000005   F   F   F
  0.1593060000000008  0.6813870000000009  0.5594030000000032   F   F   F
  0.5000000000000000  0.0000000000000000  0.4412969999999987   F   F   F
  0.3438310000000016  0.8280839999999969  0.6775850000000005   F   F   F
  0.6813870000000009  0.1593069999999983  0.5594030000000032   F   F   F
  0.0000000000000000  0.5000000000000000  0.4412969999999987   F   F   F
  0.8280839999999969  0.8280850000000015  0.6775850000000005   F   F   F
  0.1593060000000008  0.1593060000000008  0.5594019999999986   F   F   F
  0.5000000000000000  0.5000000000000000  0.4412969999999987   F   F   F
  0.3333330000000032  0.3333330000000032  0.8191020000000009   T   T   T
  0.3333330000000032  0.3333330000000032  0.7695692940138062   T   T   T
 
  0.00000000E+00  0.00000000E+00  0.00000000E+00
  0.00000000E+00  0.00000000E+00  0.00000000E+00
  0.00000000E+00  0.00000000E+00  0.00000000E+00
  0.00000000E+00  0.00000000E+00  0.00000000E+00
  0.00000000E+00  0.00000000E+00  0.00000000E+00
  0.00000000E+00  0.00000000E+00  0.00000000E+00
  0.00000000E+00  0.00000000E+00  0.00000000E+00
  0.00000000E+00  0.00000000E+00  0.00000000E+00
  0.00000000E+00  0.00000000E+00  0.00000000E+00
  0.00000000E+00  0.00000000E+00  0.00000000E+00
  0.00000000E+00  0.00000000E+00  0.00000000E+00
  0.00000000E+00  0.00000000E+00  0.00000000E+00
  0.00000000E+00  0.00000000E+00  0.00000000E+00
  0.00000000E+00  0.00000000E+00  0.00000000E+00
  0.00000000E+00  0.00000000E+00  0.00000000E+00
  0.00000000E+00  0.00000000E+00  0.00000000E+00
  0.00000000E+00  0.00000000E+00  0.00000000E+00
  0.00000000E+00  0.00000000E+00  0.00000000E+00
