Sc4 Ga12                                
   1.00000000000000     
     5.8103230000000003    0.0000000000000000    0.0000000000000000
     2.9051619999999998    5.0318880000000004    0.0000000000000000
     0.0000000000000000    0.0000000000000000   22.1161640000000013
   Sc   Ga
     4    12
Selective dynamics
Direct
  0.3333330000000032  0.3333330000000032  0.3391179999999991   F   F   F
  0.6666671627045577  0.6666677649039691  0.5503954607147894   T   T   T
  0.0000000000000000  0.0000000000000000  0.4463730000000012   F   F   F
  0.3333323782166046  0.3333327410514775  0.6545238953076923   T   T   T
  0.8333330000000032  0.3333330000000032  0.3391179999999991   F   F   F
  0.3333330000000032  0.8333330000000032  0.3391179999999991   F   F   F
  0.8333330000000032  0.8333330000000032  0.3391179999999991   F   F   F
  0.8363131032906396  0.3273711227764878  0.6656928327617628   T   T   T
  0.1629435965443300  0.6741138211896828  0.5537970511061315   T   T   T
  0.5000000000000000  0.0000000000000000  0.4463730000000012   F   F   F
  0.3273705777427632  0.8363135588298504  0.6656930265086675   T   T   T
  0.6741129159900365  0.1629427307911337  0.5537970522933849   T   T   T
  0.0000000000000000  0.5000000000000000  0.4463730000000012   F   F   F
  0.8363151247749351  0.8363154046561556  0.6656931829786419   T   T   T
  0.1629443858813688  0.1629416534731815  0.5537967987980973   T   T   T
  0.5000000000000000  0.5000000000000000  0.4463730000000012   F   F   F
 
  0.00000000E+00  0.00000000E+00  0.00000000E+00
  0.00000000E+00  0.00000000E+00  0.00000000E+00
  0.00000000E+00  0.00000000E+00  0.00000000E+00
  0.00000000E+00  0.00000000E+00  0.00000000E+00
  0.00000000E+00  0.00000000E+00  0.00000000E+00
  0.00000000E+00  0.00000000E+00  0.00000000E+00
  0.00000000E+00  0.00000000E+00  0.00000000E+00
  0.00000000E+00  0.00000000E+00  0.00000000E+00
  0.00000000E+00  0.00000000E+00  0.00000000E+00
  0.00000000E+00  0.00000000E+00  0.00000000E+00
  0.00000000E+00  0.00000000E+00  0.00000000E+00
  0.00000000E+00  0.00000000E+00  0.00000000E+00
  0.00000000E+00  0.00000000E+00  0.00000000E+00
  0.00000000E+00  0.00000000E+00  0.00000000E+00
  0.00000000E+00  0.00000000E+00  0.00000000E+00
  0.00000000E+00  0.00000000E+00  0.00000000E+00
