Sc4 Ga12 N2                             
   1.00000000000000     
     5.8103230000000003    0.0000000000000000    0.0000000000000000
     2.9051619999999998    5.0318880000000004    0.0000000000000000
     0.0000000000000000    0.0000000000000000   22.1161640000000013
   Sc   Ga   N 
     4    12     2
Selective dynamics
Direct
  0.3333330000000032  0.3333330000000032  0.3391179999999991   F   F   F
  0.6653147477283359  0.6663653862153377  0.5500298333487541   T   T   T
  0.0000000000000000  0.0000000000000000  0.4463730000000012   F   F   F
  0.3329351178720811  0.3333379056045446  0.6578681049097732   T   T   T
  0.8333330000000032  0.3333330000000032  0.3391179999999991   F   F   F
  0.3333330000000032  0.8333330000000032  0.3391179999999991   F   F   F
  0.8333330000000032  0.8333330000000032  0.3391179999999991   F   F   F
  0.8357372605915293  0.3281914126355046  0.6655572220935717   T   T   T
  0.1630530411809133  0.6715777861415920  0.5549111903270695   T   T   T
  0.5000000000000000  0.0000000000000000  0.4463730000000012   F   F   F
  0.3272142953394359  0.8361897966343061  0.6658890073934211   T   T   T
  0.6711654474893310  0.1636638947550716  0.5548786008087496   T   T   T
  0.0000000000000000  0.5000000000000000  0.4463730000000012   F   F   F
  0.8353711225840547  0.8362151967336420  0.6647905973052506   T   T   T
  0.1626385069641931  0.1634536225534564  0.5551476232017125   T   T   T
  0.5000000000000000  0.5000000000000000  0.4463730000000012   F   F   F
  0.3028293739391049  0.2606453076854549  0.7805439357843642   T   T   T
  0.3729564159933788  0.4106320103255098  0.7806174365452522   T   T   T
 
  0.00000000E+00  0.00000000E+00  0.00000000E+00
  0.00000000E+00  0.00000000E+00  0.00000000E+00
  0.00000000E+00  0.00000000E+00  0.00000000E+00
  0.00000000E+00  0.00000000E+00  0.00000000E+00
  0.00000000E+00  0.00000000E+00  0.00000000E+00
  0.00000000E+00  0.00000000E+00  0.00000000E+00
  0.00000000E+00  0.00000000E+00  0.00000000E+00
  0.00000000E+00  0.00000000E+00  0.00000000E+00
  0.00000000E+00  0.00000000E+00  0.00000000E+00
  0.00000000E+00  0.00000000E+00  0.00000000E+00
  0.00000000E+00  0.00000000E+00  0.00000000E+00
  0.00000000E+00  0.00000000E+00  0.00000000E+00
  0.00000000E+00  0.00000000E+00  0.00000000E+00
  0.00000000E+00  0.00000000E+00  0.00000000E+00
  0.00000000E+00  0.00000000E+00  0.00000000E+00
  0.00000000E+00  0.00000000E+00  0.00000000E+00
  0.00000000E+00  0.00000000E+00  0.00000000E+00
  0.00000000E+00  0.00000000E+00  0.00000000E+00
