Y1 Sc2 Ti1 Ga3 Sn2 Ge7 N2               
   1.00000000000000     
     6.3467370000000001    0.0000000000000000    0.0000000000000000
     3.1733690000000001    5.4964360000000001    0.0000000000000000
     0.0000000000000000    0.0000000000000000   22.7731339999999989
   Y    Sc   Ti   Ga   Sn   Ge   N 
     1     2     1     3     2     7     2
Selective dynamics
Direct
  0.3261789301573390  0.3941859287645455  0.6499504359255320   T   T   T
  0.3333330000000032  0.3333330000000032  0.3391179999999991   F   F   F
  0.0000000000000000  0.0000000000000000  0.4463730000000012   F   F   F
  0.7015070664578464  0.6210946616780387  0.5402915992099305   T   T   T
  0.3495543996955073  0.8763385795188267  0.6637836049648421   T   T   T
  0.6810500211230073  0.1673247902269358  0.5502484230955724   T   T   T
  0.5000000000000000  0.5000000000000000  0.4463730000000012   F   F   F
  0.5000000000000000  0.0000000000000000  0.4463730000000012   F   F   F
  0.1598550793632329  0.1541159823159725  0.5569149892473980   T   T   T
  0.8333330000000032  0.3333330000000032  0.3391179999999991   F   F   F
  0.3333330000000032  0.8333330000000032  0.3391179999999991   F   F   F
  0.8333330000000032  0.8333330000000032  0.3391179999999991   F   F   F
  0.7811257135200362  0.4529361279323472  0.6536286388394371   T   T   T
  0.1393460890203296  0.6943246708167968  0.5470664783767563   T   T   T
  0.0000000000000000  0.5000000000000000  0.4463730000000012   F   F   F
  0.7998109612873600  0.8591482355262358  0.6457313489577503   T   T   T
  0.2723881654059710  0.8267778502577480  0.8464305887329150   T   T   T
  0.3966703352715533  0.8592990287786336  0.8178882429245496   T   T   T
 
  0.00000000E+00  0.00000000E+00  0.00000000E+00
  0.00000000E+00  0.00000000E+00  0.00000000E+00
  0.00000000E+00  0.00000000E+00  0.00000000E+00
  0.00000000E+00  0.00000000E+00  0.00000000E+00
  0.00000000E+00  0.00000000E+00  0.00000000E+00
  0.00000000E+00  0.00000000E+00  0.00000000E+00
  0.00000000E+00  0.00000000E+00  0.00000000E+00
  0.00000000E+00  0.00000000E+00  0.00000000E+00
  0.00000000E+00  0.00000000E+00  0.00000000E+00
  0.00000000E+00  0.00000000E+00  0.00000000E+00
  0.00000000E+00  0.00000000E+00  0.00000000E+00
  0.00000000E+00  0.00000000E+00  0.00000000E+00
  0.00000000E+00  0.00000000E+00  0.00000000E+00
  0.00000000E+00  0.00000000E+00  0.00000000E+00
  0.00000000E+00  0.00000000E+00  0.00000000E+00
  0.00000000E+00  0.00000000E+00  0.00000000E+00
  0.00000000E+00  0.00000000E+00  0.00000000E+00
  0.00000000E+00  0.00000000E+00  0.00000000E+00
