Y4 Sn12 H2 N1                           
   1.00000000000000     
     6.6593689999999999    0.0000000000000000    0.0000000000000000
     3.3296850000000000    5.7671830000000002    0.0000000000000000
     0.0000000000000000    0.0000000000000000   23.1560279999999992
   Y    Sn   H    N 
     4    12     2     1
Selective dynamics
Direct
  0.3333330000000032  0.3333330000000032  0.3238899999999987   F   F   F
  0.6659522052321242  0.6659525236856180  0.5557268189306285   T   T   T
  0.0000000000000000  0.0000000000000000  0.4412969999999987   F   F   F
  0.3318363695307545  0.3318360175019795  0.6600370241482626   T   T   T
  0.8333330000000032  0.3333330000000032  0.3238899999999987   F   F   F
  0.3333330000000032  0.8333330000000032  0.3238899999999987   F   F   F
  0.8333330000000032  0.8333330000000032  0.3238899999999987   F   F   F
  0.8302425695482891  0.3576195677086136  0.6869911904415738   T   T   T
  0.1608296592427894  0.6824822635267371  0.5574991590782379   T   T   T
  0.5000000000000000  0.0000000000000000  0.4412969999999987   F   F   F
  0.3576194537928531  0.8302428993850537  0.6869911968356422   T   T   T
  0.6824823536916095  0.1608294578239912  0.5574992439901807   T   T   T
  0.0000000000000000  0.5000000000000000  0.4412969999999987   F   F   F
  0.8490097454438896  0.8490096852906633  0.6765082845258557   T   T   T
  0.1622016691229244  0.1622012003541452  0.5564074530238663   T   T   T
  0.5000000000000000  0.5000000000000000  0.4412969999999987   F   F   F
  0.5264106251694625  0.5264107612448385  0.7875180480499169   T   T   T
  0.6702649882601011  0.6702648491097729  0.7895788844671461   T   T   T
  0.5998282111741027  0.5998282066698465  0.7623520275431970   T   T   T
 
  0.00000000E+00  0.00000000E+00  0.00000000E+00
  0.00000000E+00  0.00000000E+00  0.00000000E+00
  0.00000000E+00  0.00000000E+00  0.00000000E+00
  0.00000000E+00  0.00000000E+00  0.00000000E+00
  0.00000000E+00  0.00000000E+00  0.00000000E+00
  0.00000000E+00  0.00000000E+00  0.00000000E+00
  0.00000000E+00  0.00000000E+00  0.00000000E+00
  0.00000000E+00  0.00000000E+00  0.00000000E+00
  0.00000000E+00  0.00000000E+00  0.00000000E+00
  0.00000000E+00  0.00000000E+00  0.00000000E+00
  0.00000000E+00  0.00000000E+00  0.00000000E+00
  0.00000000E+00  0.00000000E+00  0.00000000E+00
  0.00000000E+00  0.00000000E+00  0.00000000E+00
  0.00000000E+00  0.00000000E+00  0.00000000E+00
  0.00000000E+00  0.00000000E+00  0.00000000E+00
  0.00000000E+00  0.00000000E+00  0.00000000E+00
  0.00000000E+00  0.00000000E+00  0.00000000E+00
  0.00000000E+00  0.00000000E+00  0.00000000E+00
  0.00000000E+00  0.00000000E+00  0.00000000E+00
