Y1 Sc2 Ti1 Ga3 Sn2 Ge7 H2 N1            
   1.00000000000000     
     6.3467370000000001    0.0000000000000000    0.0000000000000000
     3.1733690000000001    5.4964360000000001    0.0000000000000000
     0.0000000000000000    0.0000000000000000   22.7731339999999989
   Y    Sc   Ti   Ga   Sn   Ge   H    N 
     1     2     1     3     2     7     2     1
Selective dynamics
Direct
  0.3326462562678814  0.3749462951162407  0.6699895847797636   T   T   T
  0.3333330000000032  0.3333330000000032  0.3391179999999991   F   F   F
  0.0000000000000000  0.0000000000000000  0.4463730000000012   F   F   F
  0.7024618211777245  0.6280695180041580  0.5386988419640011   T   T   T
  0.3485247224331770  0.8609597423511656  0.6608911182467573   T   T   T
  0.6790071046950318  0.1808198912079098  0.5536304621549731   T   T   T
  0.5000000000000000  0.5000000000000000  0.4463730000000012   F   F   F
  0.5000000000000000  0.0000000000000000  0.4463730000000012   F   F   F
  0.1674860267422994  0.1619019324303247  0.5579621637341033   T   T   T
  0.8333330000000032  0.3333330000000032  0.3391179999999991   F   F   F
  0.3333330000000032  0.8333330000000032  0.3391179999999991   F   F   F
  0.8333330000000032  0.8333330000000032  0.3391179999999991   F   F   F
  0.7851548051457844  0.4503813270570613  0.6520117438018567   T   T   T
  0.1384397399415109  0.7004696074761763  0.5526100232714062   T   T   T
  0.0000000000000000  0.5000000000000000  0.4463730000000012   F   F   F
  0.8042828373630876  0.8504300698522087  0.6430226659536588   T   T   T
  0.2501116345854232  0.2961769803495009  0.7883641513305972   T   T   T
  0.4237209445587286  0.4205591057517116  0.7917815865125362   T   T   T
  0.3384037243714508  0.3624698869910982  0.7633531711564923   T   T   T
 
  0.00000000E+00  0.00000000E+00  0.00000000E+00
  0.00000000E+00  0.00000000E+00  0.00000000E+00
  0.00000000E+00  0.00000000E+00  0.00000000E+00
  0.00000000E+00  0.00000000E+00  0.00000000E+00
  0.00000000E+00  0.00000000E+00  0.00000000E+00
  0.00000000E+00  0.00000000E+00  0.00000000E+00
  0.00000000E+00  0.00000000E+00  0.00000000E+00
  0.00000000E+00  0.00000000E+00  0.00000000E+00
  0.00000000E+00  0.00000000E+00  0.00000000E+00
  0.00000000E+00  0.00000000E+00  0.00000000E+00
  0.00000000E+00  0.00000000E+00  0.00000000E+00
  0.00000000E+00  0.00000000E+00  0.00000000E+00
  0.00000000E+00  0.00000000E+00  0.00000000E+00
  0.00000000E+00  0.00000000E+00  0.00000000E+00
  0.00000000E+00  0.00000000E+00  0.00000000E+00
  0.00000000E+00  0.00000000E+00  0.00000000E+00
  0.00000000E+00  0.00000000E+00  0.00000000E+00
  0.00000000E+00  0.00000000E+00  0.00000000E+00
  0.00000000E+00  0.00000000E+00  0.00000000E+00
