Y1 Sc2 Ti1 Ga3 Sn2 Ge7 N2               
   1.00000000000000     
     6.3467370000000001    0.0000000000000000    0.0000000000000000
     3.1733690000000001    5.4964360000000001    0.0000000000000000
     0.0000000000000000    0.0000000000000000   22.7731339999999989
   Y    Sc   Ti   Ga   Sn   Ge   N 
     1     2     1     3     2     7     2
Selective dynamics
Direct
  0.3305992712914164  0.3792492837991753  0.6513771453484553   T   T   T
  0.3333330000000032  0.3333330000000032  0.3391179999999991   F   F   F
  0.0000000000000000  0.0000000000000000  0.4463730000000012   F   F   F
  0.7064137300668718  0.6161490910812515  0.5401552227683114   T   T   T
  0.3540629520027452  0.8596660332403148  0.6631074302781607   T   T   T
  0.6840032955197819  0.1614553302929980  0.5508718877644327   T   T   T
  0.5000000000000000  0.5000000000000000  0.4463730000000012   F   F   F
  0.5000000000000000  0.0000000000000000  0.4463730000000012   F   F   F
  0.1639888450988800  0.1459502181595936  0.5568928254171440   T   T   T
  0.8333330000000032  0.3333330000000032  0.3391179999999991   F   F   F
  0.3333330000000032  0.8333330000000032  0.3391179999999991   F   F   F
  0.8333330000000032  0.8333330000000032  0.3391179999999991   F   F   F
  0.7896238353340727  0.4374064191500303  0.6533544041029274   T   T   T
  0.1444882474622854  0.6892636442313546  0.5478796818570870   T   T   T
  0.0000000000000000  0.5000000000000000  0.4463730000000012   F   F   F
  0.8037285138594503  0.8453655671890227  0.6455109436682994   T   T   T
  0.3180365722805474  0.2584870814342060  0.7802003329648661   T   T   T
  0.3554885125097840  0.4143566846227016  0.7802090281450363   T   T   T
 
  0.00000000E+00  0.00000000E+00  0.00000000E+00
  0.00000000E+00  0.00000000E+00  0.00000000E+00
  0.00000000E+00  0.00000000E+00  0.00000000E+00
  0.00000000E+00  0.00000000E+00  0.00000000E+00
  0.00000000E+00  0.00000000E+00  0.00000000E+00
  0.00000000E+00  0.00000000E+00  0.00000000E+00
  0.00000000E+00  0.00000000E+00  0.00000000E+00
  0.00000000E+00  0.00000000E+00  0.00000000E+00
  0.00000000E+00  0.00000000E+00  0.00000000E+00
  0.00000000E+00  0.00000000E+00  0.00000000E+00
  0.00000000E+00  0.00000000E+00  0.00000000E+00
  0.00000000E+00  0.00000000E+00  0.00000000E+00
  0.00000000E+00  0.00000000E+00  0.00000000E+00
  0.00000000E+00  0.00000000E+00  0.00000000E+00
  0.00000000E+00  0.00000000E+00  0.00000000E+00
  0.00000000E+00  0.00000000E+00  0.00000000E+00
  0.00000000E+00  0.00000000E+00  0.00000000E+00
  0.00000000E+00  0.00000000E+00  0.00000000E+00
