Y4 Sn12 N2                              
   1.00000000000000     
     6.6593689999999999    0.0000000000000000    0.0000000000000000
     3.3296850000000000    5.7671830000000002    0.0000000000000000
     0.0000000000000000    0.0000000000000000   23.1560279999999992
   Y    Sn   N 
     4    12     2
Selective dynamics
Direct
  0.3333330000000032  0.3333330000000032  0.3238899999999987   F   F   F
  0.6662071980508403  0.6666052295215134  0.5517442585353846   T   T   T
  0.0000000000000000  0.0000000000000000  0.4412969999999987   F   F   F
  0.3302602731292761  0.3350308269668067  0.6623061872771777   T   T   T
  0.8333330000000032  0.3333330000000032  0.3238899999999987   F   F   F
  0.3333330000000032  0.8333330000000032  0.3238899999999987   F   F   F
  0.8333330000000032  0.8333330000000032  0.3238899999999987   F   F   F
  0.8228320126676212  0.3493372719333825  0.6778549190390541   T   T   T
  0.1598112592928402  0.6783765553460021  0.5581196371968772   T   T   T
  0.5000000000000000  0.0000000000000000  0.4412969999999987   F   F   F
  0.3337544990903609  0.8332973698315549  0.6754065108762335   T   T   T
  0.6771479540914447  0.1611856381899547  0.5585791197482041   T   T   T
  0.0000000000000000  0.5000000000000000  0.4412969999999987   F   F   F
  0.8229439401691548  0.8282612727010819  0.6778487791947447   T   T   T
  0.1600519603255362  0.1614661478209169  0.5581227207232449   T   T   T
  0.5000000000000000  0.5000000000000000  0.4412969999999987   F   F   F
  0.2695396785984661  0.8152758369138854  0.8348234167923946   T   T   T
  0.4211956359076374  0.8423602088972841  0.8401096937618467   T   T   T
 
  0.00000000E+00  0.00000000E+00  0.00000000E+00
  0.00000000E+00  0.00000000E+00  0.00000000E+00
  0.00000000E+00  0.00000000E+00  0.00000000E+00
  0.00000000E+00  0.00000000E+00  0.00000000E+00
  0.00000000E+00  0.00000000E+00  0.00000000E+00
  0.00000000E+00  0.00000000E+00  0.00000000E+00
  0.00000000E+00  0.00000000E+00  0.00000000E+00
  0.00000000E+00  0.00000000E+00  0.00000000E+00
  0.00000000E+00  0.00000000E+00  0.00000000E+00
  0.00000000E+00  0.00000000E+00  0.00000000E+00
  0.00000000E+00  0.00000000E+00  0.00000000E+00
  0.00000000E+00  0.00000000E+00  0.00000000E+00
  0.00000000E+00  0.00000000E+00  0.00000000E+00
  0.00000000E+00  0.00000000E+00  0.00000000E+00
  0.00000000E+00  0.00000000E+00  0.00000000E+00
  0.00000000E+00  0.00000000E+00  0.00000000E+00
  0.00000000E+00  0.00000000E+00  0.00000000E+00
  0.00000000E+00  0.00000000E+00  0.00000000E+00
