Y4 Sn12 H1 N1                           
   1.00000000000000     
     6.6593689999999999    0.0000000000000000    0.0000000000000000
     3.3296850000000000    5.7671830000000002    0.0000000000000000
     0.0000000000000000    0.0000000000000000   23.1560279999999992
   Y    Sn   H    N 
     4    12     1     1
Selective dynamics
Direct
  0.3333330000000032  0.3333330000000032  0.3238899999999987   F   F   F
  0.6666659999999993  0.6666659999999993  0.5522279999999995   F   F   F
  0.0000000000000000  0.0000000000000000  0.4412969999999987   F   F   F
  0.3333330000000032  0.3333330000000032  0.6759460000000033   F   F   F
  0.8333330000000032  0.3333330000000032  0.3238899999999987   F   F   F
  0.3333330000000032  0.8333330000000032  0.3238899999999987   F   F   F
  0.8333330000000032  0.8333330000000032  0.3238899999999987   F   F   F
  0.8354059999999990  0.3291880000000020  0.6787970000000030   F   F   F
  0.1597620000000006  0.6804759999999987  0.5613159999999979   F   F   F
  0.5000000000000000  0.0000000000000000  0.4412969999999987   F   F   F
  0.3291880000000020  0.8354059999999990  0.6787970000000030   F   F   F
  0.6804759999999987  0.1597620000000006  0.5613159999999979   F   F   F
  0.0000000000000000  0.5000000000000000  0.4412969999999987   F   F   F
  0.8354070000000036  0.8354070000000036  0.6787970000000030   F   F   F
  0.1597620000000006  0.1597620000000006  0.5613159999999979   F   F   F
  0.5000000000000000  0.5000000000000000  0.4412969999999987   F   F   F
  0.3333319999999986  0.3333330000000032  0.8052449999999993   T   T   T
  0.3333330000000032  0.3333330000000032  0.7600502940138090   T   T   T
 
  0.00000000E+00  0.00000000E+00  0.00000000E+00
  0.00000000E+00  0.00000000E+00  0.00000000E+00
  0.00000000E+00  0.00000000E+00  0.00000000E+00
  0.00000000E+00  0.00000000E+00  0.00000000E+00
  0.00000000E+00  0.00000000E+00  0.00000000E+00
  0.00000000E+00  0.00000000E+00  0.00000000E+00
  0.00000000E+00  0.00000000E+00  0.00000000E+00
  0.00000000E+00  0.00000000E+00  0.00000000E+00
  0.00000000E+00  0.00000000E+00  0.00000000E+00
  0.00000000E+00  0.00000000E+00  0.00000000E+00
  0.00000000E+00  0.00000000E+00  0.00000000E+00
  0.00000000E+00  0.00000000E+00  0.00000000E+00
  0.00000000E+00  0.00000000E+00  0.00000000E+00
  0.00000000E+00  0.00000000E+00  0.00000000E+00
  0.00000000E+00  0.00000000E+00  0.00000000E+00
  0.00000000E+00  0.00000000E+00  0.00000000E+00
  0.00000000E+00  0.00000000E+00  0.00000000E+00
  0.00000000E+00  0.00000000E+00  0.00000000E+00
