Y1 Sc2 Ti1 Ga3 Sn2 Ge7 H2 N1            
   1.00000000000000     
     6.3467370000000001    0.0000000000000000    0.0000000000000000
     3.1733690000000001    5.4964360000000001    0.0000000000000000
     0.0000000000000000    0.0000000000000000   22.7731339999999989
   Y    Sc   Ti   Ga   Sn   Ge   H    N 
     1     2     1     3     2     7     2     1
Selective dynamics
Direct
  0.3326459999999969  0.3749460000000013  0.6699899999999985   F   F   F
  0.3333330000000032  0.3333330000000032  0.3391179999999991   F   F   F
  0.0000000000000000  0.0000000000000000  0.4463730000000012   F   F   F
  0.7024619999999970  0.6280700000000010  0.5386990000000011   F   F   F
  0.3485250000000022  0.8609599999999986  0.6608909999999995   F   F   F
  0.6790069999999986  0.1808199999999971  0.5536299999999983   F   F   F
  0.5000000000000000  0.5000000000000000  0.4463730000000012   F   F   F
  0.5000000000000000  0.0000000000000000  0.4463730000000012   F   F   F
  0.1674859999999967  0.1619019999999978  0.5579620000000034   F   F   F
  0.8333330000000032  0.3333330000000032  0.3391179999999991   F   F   F
  0.3333330000000032  0.8333330000000032  0.3391179999999991   F   F   F
  0.8333330000000032  0.8333330000000032  0.3391179999999991   F   F   F
  0.7851550000000032  0.4503810000000001  0.6520119999999991   F   F   F
  0.1384400000000028  0.7004700000000028  0.5526100000000014   F   F   F
  0.0000000000000000  0.5000000000000000  0.4463730000000012   F   F   F
  0.8042829999999981  0.8504300000000029  0.6430229999999995   F   F   F
  0.2501120000000014  0.2961770000000001  0.7883640000000014   T   T   T
  0.4237210000000005  0.4205589999999972  0.7917819999999978   T   T   T
  0.3384039999999970  0.3624700000000019  0.7624747721724227   T   T   T
 
  0.00000000E+00  0.00000000E+00  0.00000000E+00
  0.00000000E+00  0.00000000E+00  0.00000000E+00
  0.00000000E+00  0.00000000E+00  0.00000000E+00
  0.00000000E+00  0.00000000E+00  0.00000000E+00
  0.00000000E+00  0.00000000E+00  0.00000000E+00
  0.00000000E+00  0.00000000E+00  0.00000000E+00
  0.00000000E+00  0.00000000E+00  0.00000000E+00
  0.00000000E+00  0.00000000E+00  0.00000000E+00
  0.00000000E+00  0.00000000E+00  0.00000000E+00
  0.00000000E+00  0.00000000E+00  0.00000000E+00
  0.00000000E+00  0.00000000E+00  0.00000000E+00
  0.00000000E+00  0.00000000E+00  0.00000000E+00
  0.00000000E+00  0.00000000E+00  0.00000000E+00
  0.00000000E+00  0.00000000E+00  0.00000000E+00
  0.00000000E+00  0.00000000E+00  0.00000000E+00
  0.00000000E+00  0.00000000E+00  0.00000000E+00
  0.00000000E+00  0.00000000E+00  0.00000000E+00
  0.00000000E+00  0.00000000E+00  0.00000000E+00
  0.00000000E+00  0.00000000E+00  0.00000000E+00
