Sc4 Ga12 N2                             
   1.00000000000000     
     5.8103230000000003    0.0000000000000000    0.0000000000000000
     2.9051619999999998    5.0318880000000004    0.0000000000000000
     0.0000000000000000    0.0000000000000000   22.1161640000000013
   Sc   Ga   N 
     4    12     2
Selective dynamics
Direct
  0.3333330000000032  0.3333330000000032  0.3391179999999991   F   F   F
  0.6667558801538451  0.6666222084498840  0.5512258755702498   T   T   T
  0.0000000000000000  0.0000000000000000  0.4463730000000012   F   F   F
  0.3344932979166923  0.3327535038799705  0.6547960950739351   T   T   T
  0.8333330000000032  0.3333330000000032  0.3391179999999991   F   F   F
  0.3333330000000032  0.8333330000000032  0.3391179999999991   F   F   F
  0.8333330000000032  0.8333330000000032  0.3391179999999991   F   F   F
  0.8379536031496779  0.3260341086806320  0.6680309585076861   T   T   T
  0.1619816089808641  0.6736654406236673  0.5544636355683735   T   T   T
  0.5000000000000000  0.0000000000000000  0.4463730000000012   F   F   F
  0.3293094918997531  0.8353454933341501  0.6664547556231991   T   T   T
  0.6761064196553557  0.1619470102764919  0.5546060477506947   T   T   T
  0.0000000000000000  0.5000000000000000  0.4463730000000012   F   F   F
  0.8379536704956847  0.8360124882473023  0.6680309615791403   T   T   T
  0.1619816365350015  0.1643531475980301  0.5544636536395470   T   T   T
  0.5000000000000000  0.5000000000000000  0.4463730000000012   F   F   F
  0.2709155766741121  0.8645377493228135  0.8443826354059921   T   T   T
  0.4711331535180915  0.7644307739437046  0.8224536610587693   T   T   T
 
  0.00000000E+00  0.00000000E+00  0.00000000E+00
  0.00000000E+00  0.00000000E+00  0.00000000E+00
  0.00000000E+00  0.00000000E+00  0.00000000E+00
  0.00000000E+00  0.00000000E+00  0.00000000E+00
  0.00000000E+00  0.00000000E+00  0.00000000E+00
  0.00000000E+00  0.00000000E+00  0.00000000E+00
  0.00000000E+00  0.00000000E+00  0.00000000E+00
  0.00000000E+00  0.00000000E+00  0.00000000E+00
  0.00000000E+00  0.00000000E+00  0.00000000E+00
  0.00000000E+00  0.00000000E+00  0.00000000E+00
  0.00000000E+00  0.00000000E+00  0.00000000E+00
  0.00000000E+00  0.00000000E+00  0.00000000E+00
  0.00000000E+00  0.00000000E+00  0.00000000E+00
  0.00000000E+00  0.00000000E+00  0.00000000E+00
  0.00000000E+00  0.00000000E+00  0.00000000E+00
  0.00000000E+00  0.00000000E+00  0.00000000E+00
  0.00000000E+00  0.00000000E+00  0.00000000E+00
  0.00000000E+00  0.00000000E+00  0.00000000E+00
