Sc4 Ga12 H1 N2                          
   1.00000000000000     
     5.8103230000000003    0.0000000000000000    0.0000000000000000
     2.9051619999999998    5.0318880000000004    0.0000000000000000
     0.0000000000000000    0.0000000000000000   22.1161640000000013
   Sc   Ga   H    N 
     4    12     1     2
Selective dynamics
Direct
  0.3333330000000032  0.3333330000000032  0.3391179999999991   F   F   F
  0.6668209999999988  0.6685429999999997  0.5523960000000017   F   F   F
  0.0000000000000000  0.0000000000000000  0.4463730000000012   F   F   F
  0.3351350000000011  0.3300330000000002  0.6574209999999994   F   F   F
  0.8333330000000032  0.3333330000000032  0.3391179999999991   F   F   F
  0.3333330000000032  0.8333330000000032  0.3391179999999991   F   F   F
  0.8333330000000032  0.8333330000000032  0.3391179999999991   F   F   F
  0.8337939999999975  0.3277670000000015  0.6666570000000007   F   F   F
  0.1648449999999997  0.6665920000000014  0.5524289999999965   F   F   F
  0.5000000000000000  0.0000000000000000  0.4463730000000012   F   F   F
  0.3220420000000033  0.8372949999999975  0.6614330000000024   F   F   F
  0.6780710000000028  0.1625470000000035  0.5539160000000010   F   F   F
  0.0000000000000000  0.5000000000000000  0.4463730000000012   F   F   F
  0.8407100000000014  0.8365030000000004  0.6649280000000033   F   F   F
  0.1620169999999987  0.1660060000000030  0.5535819999999987   F   F   F
  0.5000000000000000  0.5000000000000000  0.4463730000000012   F   F   F
  0.3334789999999970  0.4161870000000008  0.8295120000000011   T   T   T
  0.3373500000000007  0.2955150000000017  0.7493899999999982   T   T   T
  0.3385820000000024  0.2621579999999994  0.8028006840435808   T   T   T
 
  0.00000000E+00  0.00000000E+00  0.00000000E+00
  0.00000000E+00  0.00000000E+00  0.00000000E+00
  0.00000000E+00  0.00000000E+00  0.00000000E+00
  0.00000000E+00  0.00000000E+00  0.00000000E+00
  0.00000000E+00  0.00000000E+00  0.00000000E+00
  0.00000000E+00  0.00000000E+00  0.00000000E+00
  0.00000000E+00  0.00000000E+00  0.00000000E+00
  0.00000000E+00  0.00000000E+00  0.00000000E+00
  0.00000000E+00  0.00000000E+00  0.00000000E+00
  0.00000000E+00  0.00000000E+00  0.00000000E+00
  0.00000000E+00  0.00000000E+00  0.00000000E+00
  0.00000000E+00  0.00000000E+00  0.00000000E+00
  0.00000000E+00  0.00000000E+00  0.00000000E+00
  0.00000000E+00  0.00000000E+00  0.00000000E+00
  0.00000000E+00  0.00000000E+00  0.00000000E+00
  0.00000000E+00  0.00000000E+00  0.00000000E+00
  0.00000000E+00  0.00000000E+00  0.00000000E+00
  0.00000000E+00  0.00000000E+00  0.00000000E+00
  0.00000000E+00  0.00000000E+00  0.00000000E+00
