Y4 Sn12 H1 N2                           
   1.00000000000000     
     6.6593689999999999    0.0000000000000000    0.0000000000000000
     3.3296850000000000    5.7671830000000002    0.0000000000000000
     0.0000000000000000    0.0000000000000000   23.1560279999999992
   Y    Sn   H    N 
     4    12     1     2
Selective dynamics
Direct
  0.3333330000000032  0.3333330000000032  0.3238899999999987   F   F   F
  0.6662081964815623  0.6668905034823935  0.5541440340014773   T   T   T
  0.0000000000000000  0.0000000000000000  0.4412969999999987   F   F   F
  0.3217676269447811  0.3390795910189744  0.6602630525114458   T   T   T
  0.8333330000000032  0.3333330000000032  0.3238899999999987   F   F   F
  0.3333330000000032  0.8333330000000032  0.3238899999999987   F   F   F
  0.8333330000000032  0.8333330000000032  0.3238899999999987   F   F   F
  0.8295186112685466  0.3338788567754198  0.6786617489049772   T   T   T
  0.1603596864969808  0.6753121265635490  0.5562058432605249   T   T   T
  0.5000000000000000  0.0000000000000000  0.4412969999999987   F   F   F
  0.3232907896847855  0.8383345924656782  0.6800234950323586   T   T   T
  0.6837203386085263  0.1581197842370061  0.5600867532764456   T   T   T
  0.0000000000000000  0.5000000000000000  0.4412969999999987   F   F   F
  0.8295476414335977  0.8365359403973598  0.6786859520088648   T   T   T
  0.1603384301309920  0.1642931188012382  0.5562002014804542   T   T   T
  0.5000000000000000  0.5000000000000000  0.4412969999999987   F   F   F
  0.3420832781251897  0.8289601882501393  0.8532604148485643   T   T   T
  0.4269326730463078  0.7866586780838415  0.7750404806286815   T   T   T
  0.2708374720919661  0.8644673637818143  0.8111594480227472   T   T   T
 
  0.00000000E+00  0.00000000E+00  0.00000000E+00
  0.00000000E+00  0.00000000E+00  0.00000000E+00
  0.00000000E+00  0.00000000E+00  0.00000000E+00
  0.00000000E+00  0.00000000E+00  0.00000000E+00
  0.00000000E+00  0.00000000E+00  0.00000000E+00
  0.00000000E+00  0.00000000E+00  0.00000000E+00
  0.00000000E+00  0.00000000E+00  0.00000000E+00
  0.00000000E+00  0.00000000E+00  0.00000000E+00
  0.00000000E+00  0.00000000E+00  0.00000000E+00
  0.00000000E+00  0.00000000E+00  0.00000000E+00
  0.00000000E+00  0.00000000E+00  0.00000000E+00
  0.00000000E+00  0.00000000E+00  0.00000000E+00
  0.00000000E+00  0.00000000E+00  0.00000000E+00
  0.00000000E+00  0.00000000E+00  0.00000000E+00
  0.00000000E+00  0.00000000E+00  0.00000000E+00
  0.00000000E+00  0.00000000E+00  0.00000000E+00
  0.00000000E+00  0.00000000E+00  0.00000000E+00
  0.00000000E+00  0.00000000E+00  0.00000000E+00
  0.00000000E+00  0.00000000E+00  0.00000000E+00
