Sc4 Ga12 H3 N1                          
   1.00000000000000     
     5.8103230000000003    0.0000000000000000    0.0000000000000000
     2.9051619999999998    5.0318880000000004    0.0000000000000000
     0.0000000000000000    0.0000000000000000   22.1161640000000013
   Sc   Ga   H    N 
     4    12     3     1
Selective dynamics
Direct
  0.3333330000000032  0.3333330000000032  0.3391179999999991   F   F   F
  0.6632633367804271  0.6683698983958619  0.5545506243600575   T   T   T
  0.0000000000000000  0.0000000000000000  0.4463730000000012   F   F   F
  0.3362175083769414  0.3318903066355201  0.6519401519146998   T   T   T
  0.8333330000000032  0.3333330000000032  0.3391179999999991   F   F   F
  0.3333330000000032  0.8333330000000032  0.3391179999999991   F   F   F
  0.8333330000000032  0.8333330000000032  0.3391179999999991   F   F   F
  0.8457602069098965  0.3209408355816629  0.6666319848987058   T   T   T
  0.1627566859626751  0.6713641979215218  0.5525093934736489   T   T   T
  0.5000000000000000  0.0000000000000000  0.4463730000000012   F   F   F
  0.3313859448522713  0.8343000863639464  0.6731838359825278   T   T   T
  0.6761915785677245  0.1619052806442805  0.5540250353957487   T   T   T
  0.0000000000000000  0.5000000000000000  0.4463730000000012   F   F   F
  0.8457625743889720  0.8332938672493655  0.6666306455272124   T   T   T
  0.1627567031152062  0.1658797125508354  0.5525093481643573   T   T   T
  0.5000000000000000  0.5000000000000000  0.4463730000000012   F   F   F
  0.2764034282033173  0.0050318474658019  0.7967188272626153   T   T   T
  0.2764129674876193  0.7186802593958231  0.7967307191587104   T   T   T
  0.5644373957542812  0.7178354824748564  0.7928458250835633   T   T   T
  0.3689688079044261  0.8155699989821791  0.7798439093713809   T   T   T
 
  0.00000000E+00  0.00000000E+00  0.00000000E+00
  0.00000000E+00  0.00000000E+00  0.00000000E+00
  0.00000000E+00  0.00000000E+00  0.00000000E+00
  0.00000000E+00  0.00000000E+00  0.00000000E+00
  0.00000000E+00  0.00000000E+00  0.00000000E+00
  0.00000000E+00  0.00000000E+00  0.00000000E+00
  0.00000000E+00  0.00000000E+00  0.00000000E+00
  0.00000000E+00  0.00000000E+00  0.00000000E+00
  0.00000000E+00  0.00000000E+00  0.00000000E+00
  0.00000000E+00  0.00000000E+00  0.00000000E+00
  0.00000000E+00  0.00000000E+00  0.00000000E+00
  0.00000000E+00  0.00000000E+00  0.00000000E+00
  0.00000000E+00  0.00000000E+00  0.00000000E+00
  0.00000000E+00  0.00000000E+00  0.00000000E+00
  0.00000000E+00  0.00000000E+00  0.00000000E+00
  0.00000000E+00  0.00000000E+00  0.00000000E+00
  0.00000000E+00  0.00000000E+00  0.00000000E+00
  0.00000000E+00  0.00000000E+00  0.00000000E+00
  0.00000000E+00  0.00000000E+00  0.00000000E+00
  0.00000000E+00  0.00000000E+00  0.00000000E+00
