Y4 Sn12 H3 N1                           
   1.00000000000000     
     6.6593689999999999    0.0000000000000000    0.0000000000000000
     3.3296850000000000    5.7671830000000002    0.0000000000000000
     0.0000000000000000    0.0000000000000000   23.1560279999999992
   Y    Sn   H    N 
     4    12     3     1
Selective dynamics
Direct
  0.3333330000000032  0.3333330000000032  0.3238899999999987   F   F   F
  0.6640458106447418  0.6679764405408610  0.5523116180327293   T   T   T
  0.0000000000000000  0.0000000000000000  0.4412969999999987   F   F   F
  0.3265528980082777  0.3367218364467685  0.6631787141753389   T   T   T
  0.8333330000000032  0.3333330000000032  0.3238899999999987   F   F   F
  0.3333330000000032  0.8333330000000032  0.3238899999999987   F   F   F
  0.8333330000000032  0.8333330000000032  0.3238899999999987   F   F   F
  0.8203688867264175  0.3495344907025245  0.6795688844839609   T   T   T
  0.1582896874553234  0.6786808843852643  0.5586832622531688   T   T   T
  0.5000000000000000  0.0000000000000000  0.4412969999999987   F   F   F
  0.3335783378410920  0.8332094513934283  0.6771441956784320   T   T   T
  0.6764640101037175  0.1617669588317081  0.5593929776865746   T   T   T
  0.0000000000000000  0.5000000000000000  0.4412969999999987   F   F   F
  0.8203697361267674  0.8300942636718904  0.6795691824832462   T   T   T
  0.1582900094426591  0.1630275675026491  0.5586831536278253   T   T   T
  0.5000000000000000  0.5000000000000000  0.4412969999999987   F   F   F
  0.2499702967199799 -0.0021115215651834  0.8208461649198133   T   T   T
  0.2499670307091455  0.7521502988814127  0.8208484840325756   T   T   T
  0.4960892820826583  0.7519593273107306  0.8173020709426603   T   T   T
  0.3361738308805060  0.8319184665368720  0.8366089078933433   T   T   T
 
  0.00000000E+00  0.00000000E+00  0.00000000E+00
  0.00000000E+00  0.00000000E+00  0.00000000E+00
  0.00000000E+00  0.00000000E+00  0.00000000E+00
  0.00000000E+00  0.00000000E+00  0.00000000E+00
  0.00000000E+00  0.00000000E+00  0.00000000E+00
  0.00000000E+00  0.00000000E+00  0.00000000E+00
  0.00000000E+00  0.00000000E+00  0.00000000E+00
  0.00000000E+00  0.00000000E+00  0.00000000E+00
  0.00000000E+00  0.00000000E+00  0.00000000E+00
  0.00000000E+00  0.00000000E+00  0.00000000E+00
  0.00000000E+00  0.00000000E+00  0.00000000E+00
  0.00000000E+00  0.00000000E+00  0.00000000E+00
  0.00000000E+00  0.00000000E+00  0.00000000E+00
  0.00000000E+00  0.00000000E+00  0.00000000E+00
  0.00000000E+00  0.00000000E+00  0.00000000E+00
  0.00000000E+00  0.00000000E+00  0.00000000E+00
  0.00000000E+00  0.00000000E+00  0.00000000E+00
  0.00000000E+00  0.00000000E+00  0.00000000E+00
  0.00000000E+00  0.00000000E+00  0.00000000E+00
  0.00000000E+00  0.00000000E+00  0.00000000E+00
