Sc4 Ga12 H1 N1                          
   1.00000000000000     
     5.8103230000000003    0.0000000000000000    0.0000000000000000
     2.9051619999999998    5.0318880000000004    0.0000000000000000
     0.0000000000000000    0.0000000000000000   22.1161640000000013
   Sc   Ga   H    N 
     4    12     1     1
Selective dynamics
Direct
  0.3333330000000032  0.3333330000000032  0.3391179999999991   F   F   F
  0.6666669999999968  0.6666669999999968  0.5542850000000001   F   F   F
  0.0000000000000000  0.0000000000000000  0.4463730000000012   F   F   F
  0.3333330000000032  0.3333330000000032  0.6544749999999979   F   F   F
  0.8333330000000032  0.3333330000000032  0.3391179999999991   F   F   F
  0.3333330000000032  0.8333330000000032  0.3391179999999991   F   F   F
  0.8333330000000032  0.8333330000000032  0.3391179999999991   F   F   F
  0.8443159999999992  0.3113669999999971  0.6710899999999995   F   F   F
  0.1644560000000013  0.6710879999999975  0.5535799999999966   F   F   F
  0.5000000000000000  0.0000000000000000  0.4463730000000012   F   F   F
  0.3113669999999971  0.8443159999999992  0.6710899999999995   F   F   F
  0.6710879999999975  0.1644560000000013  0.5535799999999966   F   F   F
  0.0000000000000000  0.5000000000000000  0.4463730000000012   F   F   F
  0.8443159999999992  0.8443159999999992  0.6710899999999995   F   F   F
  0.1644560000000013  0.1644560000000013  0.5535799999999966   F   F   F
  0.5000000000000000  0.5000000000000000  0.4463730000000012   F   F   F
  0.6666669999999968  0.6666669999999968  0.7661450000000016   T   T   T
  0.6666669999999968  0.6666669999999968  0.7183256840435832   T   T   T
 
  0.00000000E+00  0.00000000E+00  0.00000000E+00
  0.00000000E+00  0.00000000E+00  0.00000000E+00
  0.00000000E+00  0.00000000E+00  0.00000000E+00
  0.00000000E+00  0.00000000E+00  0.00000000E+00
  0.00000000E+00  0.00000000E+00  0.00000000E+00
  0.00000000E+00  0.00000000E+00  0.00000000E+00
  0.00000000E+00  0.00000000E+00  0.00000000E+00
  0.00000000E+00  0.00000000E+00  0.00000000E+00
  0.00000000E+00  0.00000000E+00  0.00000000E+00
  0.00000000E+00  0.00000000E+00  0.00000000E+00
  0.00000000E+00  0.00000000E+00  0.00000000E+00
  0.00000000E+00  0.00000000E+00  0.00000000E+00
  0.00000000E+00  0.00000000E+00  0.00000000E+00
  0.00000000E+00  0.00000000E+00  0.00000000E+00
  0.00000000E+00  0.00000000E+00  0.00000000E+00
  0.00000000E+00  0.00000000E+00  0.00000000E+00
  0.00000000E+00  0.00000000E+00  0.00000000E+00
  0.00000000E+00  0.00000000E+00  0.00000000E+00
