Y4 Sn12 H1 N2                           
   1.00000000000000     
     6.6593689999999999    0.0000000000000000    0.0000000000000000
     3.3296850000000000    5.7671830000000002    0.0000000000000000
     0.0000000000000000    0.0000000000000000   23.1560279999999992
   Y    Sn   H    N 
     4    12     1     2
Selective dynamics
Direct
  0.3333330000000032  0.3333330000000032  0.3238899999999987   F   F   F
  0.6665502537576354  0.6619534501146300  0.5556268315527124   T   T   T
  0.0000000000000000  0.0000000000000000  0.4412969999999987   F   F   F
  0.3118504774173517  0.3542947137226723  0.6627421158508222   T   T   T
  0.8333330000000032  0.3333330000000032  0.3238899999999987   F   F   F
  0.3333330000000032  0.8333330000000032  0.3238899999999987   F   F   F
  0.8333330000000032  0.8333330000000032  0.3238899999999987   F   F   F
  0.8209379455646562  0.3400022710388788  0.6797786704949431   T   T   T
  0.1557246506674207  0.6802028355858601  0.5575958898586105   T   T   T
  0.5000000000000000  0.0000000000000000  0.4412969999999987   F   F   F
  0.2961111966470243  0.8538567566896693  0.6838344391790405   T   T   T
  0.6818739495022086  0.1554565926788725  0.5622001387505061   T   T   T
  0.0000000000000000  0.5000000000000000  0.4412969999999987   F   F   F
  0.8122250013760873  0.8418027513736426  0.6889640099692097   T   T   T
  0.1622017743969869  0.1604619495146910  0.5585209182800275   T   T   T
  0.5000000000000000  0.5000000000000000  0.4412969999999987   F   F   F
  0.6298199411228220  0.8481459316091622  0.8295795411727610   T   T   T
  0.5814254671496966  0.8512371656720653  0.7859258491433321   T   T   T
  0.3830586464452616  0.8854172650226997  0.7804200440267340   T   T   T
 
  0.00000000E+00  0.00000000E+00  0.00000000E+00
  0.00000000E+00  0.00000000E+00  0.00000000E+00
  0.00000000E+00  0.00000000E+00  0.00000000E+00
  0.00000000E+00  0.00000000E+00  0.00000000E+00
  0.00000000E+00  0.00000000E+00  0.00000000E+00
  0.00000000E+00  0.00000000E+00  0.00000000E+00
  0.00000000E+00  0.00000000E+00  0.00000000E+00
  0.00000000E+00  0.00000000E+00  0.00000000E+00
  0.00000000E+00  0.00000000E+00  0.00000000E+00
  0.00000000E+00  0.00000000E+00  0.00000000E+00
  0.00000000E+00  0.00000000E+00  0.00000000E+00
  0.00000000E+00  0.00000000E+00  0.00000000E+00
  0.00000000E+00  0.00000000E+00  0.00000000E+00
  0.00000000E+00  0.00000000E+00  0.00000000E+00
  0.00000000E+00  0.00000000E+00  0.00000000E+00
  0.00000000E+00  0.00000000E+00  0.00000000E+00
  0.00000000E+00  0.00000000E+00  0.00000000E+00
  0.00000000E+00  0.00000000E+00  0.00000000E+00
  0.00000000E+00  0.00000000E+00  0.00000000E+00
