Y4 Sn12 H1 N2                           
   1.00000000000000     
     6.6593689999999999    0.0000000000000000    0.0000000000000000
     3.3296850000000000    5.7671830000000002    0.0000000000000000
     0.0000000000000000    0.0000000000000000   23.1560279999999992
   Y    Sn   H    N 
     4    12     1     2
Selective dynamics
Direct
  0.3333330000000032  0.3333330000000032  0.3238899999999987   F   F   F
  0.6693280000000001  0.6656290000000027  0.5513329999999996   F   F   F
  0.0000000000000000  0.0000000000000000  0.4412969999999987   F   F   F
  0.3353669999999980  0.3401660000000035  0.6809439999999967   F   F   F
  0.8333330000000032  0.3333330000000032  0.3238899999999987   F   F   F
  0.3333330000000032  0.8333330000000032  0.3238899999999987   F   F   F
  0.8333330000000032  0.8333330000000032  0.3238899999999987   F   F   F
  0.8329290000000000  0.3424949999999995  0.6768280000000004   F   F   F
  0.1634880000000010  0.6779179999999982  0.5618189999999998   F   F   F
  0.5000000000000000  0.0000000000000000  0.4412969999999987   F   F   F
  0.3367730000000009  0.8374090000000010  0.6753900000000002   F   F   F
  0.6773809999999969  0.1629310000000004  0.5617179999999991   F   F   F
  0.0000000000000000  0.5000000000000000  0.4412969999999987   F   F   F
  0.8243510000000001  0.8293419999999969  0.6758290000000002   F   F   F
  0.1632510000000025  0.1622920000000008  0.5618720000000010   F   F   F
  0.5000000000000000  0.5000000000000000  0.4412969999999987   F   F   F
  0.3920620000000028  0.4691389999999984  0.8141359999999978   T   T   T
  0.3636249999999990  0.4073479999999989  0.7750759999999985   T   T   T
  0.3015690000000006  0.2596440000000015  0.7759252940138101   T   T   T
 
  0.00000000E+00  0.00000000E+00  0.00000000E+00
  0.00000000E+00  0.00000000E+00  0.00000000E+00
  0.00000000E+00  0.00000000E+00  0.00000000E+00
  0.00000000E+00  0.00000000E+00  0.00000000E+00
  0.00000000E+00  0.00000000E+00  0.00000000E+00
  0.00000000E+00  0.00000000E+00  0.00000000E+00
  0.00000000E+00  0.00000000E+00  0.00000000E+00
  0.00000000E+00  0.00000000E+00  0.00000000E+00
  0.00000000E+00  0.00000000E+00  0.00000000E+00
  0.00000000E+00  0.00000000E+00  0.00000000E+00
  0.00000000E+00  0.00000000E+00  0.00000000E+00
  0.00000000E+00  0.00000000E+00  0.00000000E+00
  0.00000000E+00  0.00000000E+00  0.00000000E+00
  0.00000000E+00  0.00000000E+00  0.00000000E+00
  0.00000000E+00  0.00000000E+00  0.00000000E+00
  0.00000000E+00  0.00000000E+00  0.00000000E+00
  0.00000000E+00  0.00000000E+00  0.00000000E+00
  0.00000000E+00  0.00000000E+00  0.00000000E+00
  0.00000000E+00  0.00000000E+00  0.00000000E+00
