Y1 Sc2 Ti1 Ga3 Sn2 Ge7                  
   1.00000000000000     
     6.3467373462151579    0.0000000000000000    0.0000000000000000
     3.1733686731075776    5.4964357729697593    0.0000000000000000
     0.0000000000000000    0.0000000000000000   22.7731340148464838
   Y    Sc   Ti   Ga   Sn   Ge
     1     2     1     3     2     7
Selective dynamics
Direct
  0.3311936861408443  0.3960677735909780  0.6498765626746764   T   T   T
  0.3333330000000032  0.3333330000000032  0.3391179999999991   F   F   F
  0.0000000000000000  0.0000000000000000  0.4463730000000012   F   F   F
  0.7012940943277318  0.6183090981923546  0.5404389274478648   T   T   T
  0.3624900988760207  0.8780869636525742  0.6639686285470816   T   T   T
  0.6839251342684978  0.1630083525537463  0.5501834144645289   T   T   T
  0.5000000000000000  0.5000000000000000  0.4463730000000012   F   F   F
  0.5000000000000000  0.0000000000000000  0.4463730000000012   F   F   F
  0.1625714779209714  0.1503950363481032  0.5572789014222005   T   T   T
  0.8333330000000032  0.3333330000000032  0.3391179999999991   F   F   F
  0.3333330000000032  0.8333330000000032  0.3391179999999991   F   F   F
  0.8333330000000032  0.8333330000000032  0.3391179999999991   F   F   F
  0.7856368038098751  0.4528042378626361  0.6541793863311904   T   T   T
  0.1415831583496232  0.6902255356690445  0.5465781590609712   T   T   T
  0.0000000000000000  0.5000000000000000  0.4463730000000012   F   F   F
  0.8069763517159221  0.8577914247144269  0.6458506078230559   T   T   T
 
  0.00000000E+00  0.00000000E+00  0.00000000E+00
  0.00000000E+00  0.00000000E+00  0.00000000E+00
  0.00000000E+00  0.00000000E+00  0.00000000E+00
  0.00000000E+00  0.00000000E+00  0.00000000E+00
  0.00000000E+00  0.00000000E+00  0.00000000E+00
  0.00000000E+00  0.00000000E+00  0.00000000E+00
  0.00000000E+00  0.00000000E+00  0.00000000E+00
  0.00000000E+00  0.00000000E+00  0.00000000E+00
  0.00000000E+00  0.00000000E+00  0.00000000E+00
  0.00000000E+00  0.00000000E+00  0.00000000E+00
  0.00000000E+00  0.00000000E+00  0.00000000E+00
  0.00000000E+00  0.00000000E+00  0.00000000E+00
  0.00000000E+00  0.00000000E+00  0.00000000E+00
  0.00000000E+00  0.00000000E+00  0.00000000E+00
  0.00000000E+00  0.00000000E+00  0.00000000E+00
  0.00000000E+00  0.00000000E+00  0.00000000E+00
