Y1 Sc2 Ti1 Ga3 Sn2 Ge7 H3 N1            
   1.00000000000000     
     6.3467370000000001    0.0000000000000000    0.0000000000000000
     3.1733690000000001    5.4964360000000001    0.0000000000000000
     0.0000000000000000    0.0000000000000000   22.7731339999999989
   Y    Sc   Ti   Ga   Sn   Ge   H    N 
     1     2     1     3     2     7     3     1
Selective dynamics
Direct
  0.3380060000000000  0.3763790000000000  0.6517249999999990   F   F   F
  0.3333330000000032  0.3333330000000032  0.3391179999999991   F   F   F
  0.0000000000000000  0.0000000000000000  0.4463730000000012   F   F   F
  0.7030099999999990  0.6124360000000024  0.5410699999999977   F   F   F
  0.3625430000000023  0.8565860000000001  0.6611430000000027   F   F   F
  0.6891170000000031  0.1544859999999986  0.5507390000000001   F   F   F
  0.5000000000000000  0.5000000000000000  0.4463730000000012   F   F   F
  0.5000000000000000  0.0000000000000000  0.4463730000000012   F   F   F
  0.1645940000000010  0.1452349999999996  0.5570319999999995   F   F   F
  0.8333330000000032  0.3333330000000032  0.3391179999999991   F   F   F
  0.3333330000000032  0.8333330000000032  0.3391179999999991   F   F   F
  0.8333330000000032  0.8333330000000032  0.3391179999999991   F   F   F
  0.7944040000000001  0.4354399999999998  0.6539149999999978   F   F   F
  0.1452519999999993  0.6874230000000026  0.5474719999999991   F   F   F
  0.0000000000000000  0.5000000000000000  0.4463730000000012   F   F   F
  0.8101130000000012  0.8428850000000025  0.6452560000000034   F   F   F
  0.2452559999999977  0.5101299999999966  0.7808149999999969   T   T   T
  0.2443320000000000  0.2511829999999975  0.7711240000000004   T   T   T
  0.5061249999999973  0.2489380000000025  0.7763550000000023   T   T   T
  0.3322300000000027  0.3443129999999996  0.7595047721724177   T   T   T
 
  0.00000000E+00  0.00000000E+00  0.00000000E+00
  0.00000000E+00  0.00000000E+00  0.00000000E+00
  0.00000000E+00  0.00000000E+00  0.00000000E+00
  0.00000000E+00  0.00000000E+00  0.00000000E+00
  0.00000000E+00  0.00000000E+00  0.00000000E+00
  0.00000000E+00  0.00000000E+00  0.00000000E+00
  0.00000000E+00  0.00000000E+00  0.00000000E+00
  0.00000000E+00  0.00000000E+00  0.00000000E+00
  0.00000000E+00  0.00000000E+00  0.00000000E+00
  0.00000000E+00  0.00000000E+00  0.00000000E+00
  0.00000000E+00  0.00000000E+00  0.00000000E+00
  0.00000000E+00  0.00000000E+00  0.00000000E+00
  0.00000000E+00  0.00000000E+00  0.00000000E+00
  0.00000000E+00  0.00000000E+00  0.00000000E+00
  0.00000000E+00  0.00000000E+00  0.00000000E+00
  0.00000000E+00  0.00000000E+00  0.00000000E+00
  0.00000000E+00  0.00000000E+00  0.00000000E+00
  0.00000000E+00  0.00000000E+00  0.00000000E+00
  0.00000000E+00  0.00000000E+00  0.00000000E+00
  0.00000000E+00  0.00000000E+00  0.00000000E+00
