Y4 Sn12 N2                              
   1.00000000000000     
     6.6593689999999999    0.0000000000000000    0.0000000000000000
     3.3296850000000000    5.7671830000000002    0.0000000000000000
     0.0000000000000000    0.0000000000000000   23.1560279999999992
   Y    Sn   N 
     4    12     2
Selective dynamics
Direct
  0.3333330000000032  0.3333330000000032  0.3238899999999987   F   F   F
  0.6669995313288357  0.6660738281223459  0.5521420691172072   T   T   T
  0.0000000000000000  0.0000000000000000  0.4412969999999987   F   F   F
  0.3311458150394032  0.3331888353521144  0.6642155407213093   T   T   T
  0.8333330000000032  0.3333330000000032  0.3238899999999987   F   F   F
  0.3333330000000032  0.8333330000000032  0.3238899999999987   F   F   F
  0.8333330000000032  0.8333330000000032  0.3238899999999987   F   F   F
  0.8260390236268607  0.3427572144886853  0.6778318356657546   T   T   T
  0.1600355241260454  0.6806544868958042  0.5596450718381467   T   T   T
  0.5000000000000000  0.0000000000000000  0.4412969999999987   F   F   F
  0.3394797902773705  0.8286332129665690  0.6774669564120072   T   T   T
  0.6796061305087422  0.1603055480383578  0.5597009066591141   T   T   T
  0.0000000000000000  0.5000000000000000  0.4412969999999987   F   F   F
  0.8242505195030179  0.8273308120980135  0.6775344813300138   T   T   T
  0.1595889536499591  0.1594521013169230  0.5593538818346921   T   T   T
  0.5000000000000000  0.5000000000000000  0.4412969999999987   F   F   F
  0.3025310789564767  0.2770377584720215  0.7906065550292490   T   T   T
  0.3748757673764452  0.3978058288326026  0.7940922239677053   T   T   T
 
  0.00000000E+00  0.00000000E+00  0.00000000E+00
  0.00000000E+00  0.00000000E+00  0.00000000E+00
  0.00000000E+00  0.00000000E+00  0.00000000E+00
  0.00000000E+00  0.00000000E+00  0.00000000E+00
  0.00000000E+00  0.00000000E+00  0.00000000E+00
  0.00000000E+00  0.00000000E+00  0.00000000E+00
  0.00000000E+00  0.00000000E+00  0.00000000E+00
  0.00000000E+00  0.00000000E+00  0.00000000E+00
  0.00000000E+00  0.00000000E+00  0.00000000E+00
  0.00000000E+00  0.00000000E+00  0.00000000E+00
  0.00000000E+00  0.00000000E+00  0.00000000E+00
  0.00000000E+00  0.00000000E+00  0.00000000E+00
  0.00000000E+00  0.00000000E+00  0.00000000E+00
  0.00000000E+00  0.00000000E+00  0.00000000E+00
  0.00000000E+00  0.00000000E+00  0.00000000E+00
  0.00000000E+00  0.00000000E+00  0.00000000E+00
  0.00000000E+00  0.00000000E+00  0.00000000E+00
  0.00000000E+00  0.00000000E+00  0.00000000E+00
