Y1 Sc2 Ti1 Ga3 Sn2 Ge7 H3 N1            
   1.00000000000000     
     6.3467370000000001    0.0000000000000000    0.0000000000000000
     3.1733690000000001    5.4964360000000001    0.0000000000000000
     0.0000000000000000    0.0000000000000000   22.7731339999999989
   Y    Sc   Ti   Ga   Sn   Ge   H    N 
     1     2     1     3     2     7     3     1
Selective dynamics
Direct
  0.3186222719950938  0.4067734064331439  0.6472548578963812   T   T   T
  0.3333330000000032  0.3333330000000032  0.3391179999999991   F   F   F
  0.0000000000000000  0.0000000000000000  0.4463730000000012   F   F   F
  0.7094759931438677  0.6225130477832034  0.5404523632934394   T   T   T
  0.3445781203836961  0.8896216445509657  0.6671026177202947   T   T   T
  0.6842064399055184  0.1592969773214458  0.5510368216338293   T   T   T
  0.5000000000000000  0.5000000000000000  0.4463730000000012   F   F   F
  0.5000000000000000  0.0000000000000000  0.4463730000000012   F   F   F
  0.1600196334648865  0.1505067678474182  0.5575268354995291   T   T   T
  0.8333330000000032  0.3333330000000032  0.3391179999999991   F   F   F
  0.3333330000000032  0.8333330000000032  0.3391179999999991   F   F   F
  0.8333330000000032  0.8333330000000032  0.3391179999999991   F   F   F
  0.7713044408045309  0.4680669280489525  0.6557657677917780   T   T   T
  0.1570550958450010  0.6868086728042847  0.5434878591778401   T   T   T
  0.0000000000000000  0.5000000000000000  0.4463730000000012   F   F   F
  0.7936748922724959  0.8724516801772335  0.6489580996773723   T   T   T
  0.1891096325474236  0.0705188225927216  0.7961251064935750   T   T   T
  0.1823300606159901  0.8161698101413860  0.7845341577093601   T   T   T
  0.4471963989401726  0.8025348679365003  0.7972551548984658   T   T   T
  0.2809434204441059  0.9013534116637152  0.7774129797096310   T   T   T
 
  0.00000000E+00  0.00000000E+00  0.00000000E+00
  0.00000000E+00  0.00000000E+00  0.00000000E+00
  0.00000000E+00  0.00000000E+00  0.00000000E+00
  0.00000000E+00  0.00000000E+00  0.00000000E+00
  0.00000000E+00  0.00000000E+00  0.00000000E+00
  0.00000000E+00  0.00000000E+00  0.00000000E+00
  0.00000000E+00  0.00000000E+00  0.00000000E+00
  0.00000000E+00  0.00000000E+00  0.00000000E+00
  0.00000000E+00  0.00000000E+00  0.00000000E+00
  0.00000000E+00  0.00000000E+00  0.00000000E+00
  0.00000000E+00  0.00000000E+00  0.00000000E+00
  0.00000000E+00  0.00000000E+00  0.00000000E+00
  0.00000000E+00  0.00000000E+00  0.00000000E+00
  0.00000000E+00  0.00000000E+00  0.00000000E+00
  0.00000000E+00  0.00000000E+00  0.00000000E+00
  0.00000000E+00  0.00000000E+00  0.00000000E+00
  0.00000000E+00  0.00000000E+00  0.00000000E+00
  0.00000000E+00  0.00000000E+00  0.00000000E+00
  0.00000000E+00  0.00000000E+00  0.00000000E+00
  0.00000000E+00  0.00000000E+00  0.00000000E+00
