Y1 Sc2 Ti1 Ga3 Sn2 Ge7 N2               
   1.00000000000000     
     6.3467370000000001    0.0000000000000000    0.0000000000000000
     3.1733690000000001    5.4964360000000001    0.0000000000000000
     0.0000000000000000    0.0000000000000000   22.7731339999999989
   Y    Sc   Ti   Ga   Sn   Ge   N 
     1     2     1     3     2     7     2
Selective dynamics
Direct
  0.3367220000000017  0.3866069999999979  0.6507480000000001   F   F   F
  0.3333330000000032  0.3333330000000032  0.3391179999999991   F   F   F
  0.0000000000000000  0.0000000000000000  0.4463730000000012   F   F   F
  0.7026340000000033  0.6165260000000004  0.5404020000000003   F   F   F
  0.3597940000000008  0.8682190000000034  0.6639899999999983   F   F   F
  0.6869099999999975  0.1619889999999984  0.5503429999999980   F   F   F
  0.5000000000000000  0.5000000000000000  0.4463730000000012   F   F   F
  0.5000000000000000  0.0000000000000000  0.4463730000000012   F   F   F
  0.1635769999999965  0.1508660000000006  0.5572260000000000   F   F   F
  0.8333330000000032  0.3333330000000032  0.3391179999999991   F   F   F
  0.3333330000000032  0.8333330000000032  0.3391179999999991   F   F   F
  0.8333330000000032  0.8333330000000032  0.3391179999999991   F   F   F
  0.7914280000000034  0.4467920000000021  0.6537420000000012   F   F   F
  0.1447709999999987  0.6932609999999997  0.5473679999999987   F   F   F
  0.0000000000000000  0.5000000000000000  0.4463730000000012   F   F   F
  0.8099780000000010  0.8518589999999975  0.6455800000000025   F   F   F
  0.3297150000000002  0.3355239999999995  0.8086619999999982   T   T   T
  0.3302839999999990  0.3558379999999985  0.7587307721724180   T   T   T
 
  0.00000000E+00  0.00000000E+00  0.00000000E+00
  0.00000000E+00  0.00000000E+00  0.00000000E+00
  0.00000000E+00  0.00000000E+00  0.00000000E+00
  0.00000000E+00  0.00000000E+00  0.00000000E+00
  0.00000000E+00  0.00000000E+00  0.00000000E+00
  0.00000000E+00  0.00000000E+00  0.00000000E+00
  0.00000000E+00  0.00000000E+00  0.00000000E+00
  0.00000000E+00  0.00000000E+00  0.00000000E+00
  0.00000000E+00  0.00000000E+00  0.00000000E+00
  0.00000000E+00  0.00000000E+00  0.00000000E+00
  0.00000000E+00  0.00000000E+00  0.00000000E+00
  0.00000000E+00  0.00000000E+00  0.00000000E+00
  0.00000000E+00  0.00000000E+00  0.00000000E+00
  0.00000000E+00  0.00000000E+00  0.00000000E+00
  0.00000000E+00  0.00000000E+00  0.00000000E+00
  0.00000000E+00  0.00000000E+00  0.00000000E+00
  0.00000000E+00  0.00000000E+00  0.00000000E+00
  0.00000000E+00  0.00000000E+00  0.00000000E+00
