Sc4 Ga12 N2                             
   1.00000000000000     
     5.8103230000000003    0.0000000000000000    0.0000000000000000
     2.9051619999999998    5.0318880000000004    0.0000000000000000
     0.0000000000000000    0.0000000000000000   22.1161640000000013
   Sc   Ga   N 
     4    12     2
Selective dynamics
Direct
  0.3333330000000032  0.3333330000000032  0.3391179999999991   F   F   F
  0.6666669999999968  0.6666669999999968  0.5506359999999972   F   F   F
  0.0000000000000000  0.0000000000000000  0.4463730000000012   F   F   F
  0.3333330000000032  0.3333330000000032  0.6582950000000025   F   F   F
  0.8333330000000032  0.3333330000000032  0.3391179999999991   F   F   F
  0.3333330000000032  0.8333330000000032  0.3391179999999991   F   F   F
  0.8333330000000032  0.8333330000000032  0.3391179999999991   F   F   F
  0.8358210000000028  0.3283580000000015  0.6661039999999971   F   F   F
  0.1639610000000005  0.6720779999999991  0.5548879999999983   F   F   F
  0.5000000000000000  0.0000000000000000  0.4463730000000012   F   F   F
  0.3283580000000015  0.8358210000000028  0.6661039999999971   F   F   F
  0.6720779999999991  0.1639610000000005  0.5548879999999983   F   F   F
  0.0000000000000000  0.5000000000000000  0.4463730000000012   F   F   F
  0.8358210000000028  0.8358210000000028  0.6661039999999971   F   F   F
  0.1639610000000005  0.1639610000000005  0.5548879999999983   F   F   F
  0.5000000000000000  0.5000000000000000  0.4463730000000012   F   F   F
  0.3333330000000032  0.3333319999999986  0.8126729999999966   T   T   T
  0.3333330000000033  0.3333330000000032  0.7607286840435834   T   T   T
 
  0.00000000E+00  0.00000000E+00  0.00000000E+00
  0.00000000E+00  0.00000000E+00  0.00000000E+00
  0.00000000E+00  0.00000000E+00  0.00000000E+00
  0.00000000E+00  0.00000000E+00  0.00000000E+00
  0.00000000E+00  0.00000000E+00  0.00000000E+00
  0.00000000E+00  0.00000000E+00  0.00000000E+00
  0.00000000E+00  0.00000000E+00  0.00000000E+00
  0.00000000E+00  0.00000000E+00  0.00000000E+00
  0.00000000E+00  0.00000000E+00  0.00000000E+00
  0.00000000E+00  0.00000000E+00  0.00000000E+00
  0.00000000E+00  0.00000000E+00  0.00000000E+00
  0.00000000E+00  0.00000000E+00  0.00000000E+00
  0.00000000E+00  0.00000000E+00  0.00000000E+00
  0.00000000E+00  0.00000000E+00  0.00000000E+00
  0.00000000E+00  0.00000000E+00  0.00000000E+00
  0.00000000E+00  0.00000000E+00  0.00000000E+00
  0.00000000E+00  0.00000000E+00  0.00000000E+00
  0.00000000E+00  0.00000000E+00  0.00000000E+00
