Sc4 Ga12 H3 N1                          
   1.00000000000000     
     5.8103230000000003    0.0000000000000000    0.0000000000000000
     2.9051619999999998    5.0318880000000004    0.0000000000000000
     0.0000000000000000    0.0000000000000000   22.1161640000000013
   Sc   Ga   H    N 
     4    12     3     1
Selective dynamics
Direct
  0.3333330000000032  0.3333330000000032  0.3391179999999991   F   F   F
  0.6666829999999990  0.6666659999999993  0.5492210000000028   F   F   F
  0.0000000000000000  0.0000000000000000  0.4463730000000012   F   F   F
  0.3333239999999975  0.3333500000000029  0.6594249999999988   F   F   F
  0.8333330000000032  0.3333330000000032  0.3391179999999991   F   F   F
  0.3333330000000032  0.8333330000000032  0.3391179999999991   F   F   F
  0.8333330000000032  0.8333330000000032  0.3391179999999991   F   F   F
  0.8353099999999998  0.3293710000000019  0.6634359999999973   F   F   F
  0.1636590000000027  0.6727169999999987  0.5549000000000035   F   F   F
  0.5000000000000000  0.0000000000000000  0.4463730000000012   F   F   F
  0.3293880000000016  0.8353219999999979  0.6634340000000023   F   F   F
  0.6727419999999995  0.1636379999999988  0.5549019999999985   F   F   F
  0.0000000000000000  0.5000000000000000  0.4463730000000012   F   F   F
  0.8353040000000007  0.8353449999999967  0.6634359999999973   F   F   F
  0.1636590000000027  0.1636409999999984  0.5549000000000035   F   F   F
  0.5000000000000000  0.5000000000000000  0.4463730000000012   F   F   F
  0.2377830000000003  0.5243040000000008  0.7816109999999981   T   T   T
  0.2378009999999975  0.2378989999999988  0.7816299999999998   T   T   T
  0.5240470000000030  0.2379639999999981  0.7816279999999978   T   T   T
  0.3331110000000024  0.3334120000000027  0.7646886840435826   T   T   T
 
  0.00000000E+00  0.00000000E+00  0.00000000E+00
  0.00000000E+00  0.00000000E+00  0.00000000E+00
  0.00000000E+00  0.00000000E+00  0.00000000E+00
  0.00000000E+00  0.00000000E+00  0.00000000E+00
  0.00000000E+00  0.00000000E+00  0.00000000E+00
  0.00000000E+00  0.00000000E+00  0.00000000E+00
  0.00000000E+00  0.00000000E+00  0.00000000E+00
  0.00000000E+00  0.00000000E+00  0.00000000E+00
  0.00000000E+00  0.00000000E+00  0.00000000E+00
  0.00000000E+00  0.00000000E+00  0.00000000E+00
  0.00000000E+00  0.00000000E+00  0.00000000E+00
  0.00000000E+00  0.00000000E+00  0.00000000E+00
  0.00000000E+00  0.00000000E+00  0.00000000E+00
  0.00000000E+00  0.00000000E+00  0.00000000E+00
  0.00000000E+00  0.00000000E+00  0.00000000E+00
  0.00000000E+00  0.00000000E+00  0.00000000E+00
  0.00000000E+00  0.00000000E+00  0.00000000E+00
  0.00000000E+00  0.00000000E+00  0.00000000E+00
  0.00000000E+00  0.00000000E+00  0.00000000E+00
  0.00000000E+00  0.00000000E+00  0.00000000E+00
