Sc4 Ga12 N2                             
   1.00000000000000     
     5.8103230000000003    0.0000000000000000    0.0000000000000000
     2.9051619999999998    5.0318880000000004    0.0000000000000000
     0.0000000000000000    0.0000000000000000   22.1161640000000013
   Sc   Ga   N 
     4    12     2
Selective dynamics
Direct
  0.3333330000000032  0.3333330000000032  0.3391179999999991   F   F   F
  0.6664828772677552  0.6666947893476568  0.5504704045091821   T   T   T
  0.0000000000000000  0.0000000000000000  0.4463730000000012   F   F   F
  0.3330560289441787  0.3336731737370427  0.6558007918405223   T   T   T
  0.8333330000000032  0.3333330000000032  0.3391179999999991   F   F   F
  0.3333330000000032  0.8333330000000032  0.3391179999999991   F   F   F
  0.8333330000000032  0.8333330000000032  0.3391179999999991   F   F   F
  0.8344680169767051  0.3288744709077576  0.6677064675306537   T   T   T
  0.1606254733701815  0.6747043251919254  0.5550636710771456   T   T   T
  0.5000000000000000  0.0000000000000000  0.4463730000000012   F   F   F
  0.3274232689793377  0.8366338087877053  0.6643705103617661   T   T   T
  0.6716950247488178  0.1640743273025865  0.5550759640750091   T   T   T
  0.0000000000000000  0.5000000000000000  0.4463730000000012   F   F   F
  0.8351744746293853  0.8364066650463035  0.6680785399745153   T   T   T
  0.1609555153843318  0.1645445289996328  0.5550598776016585   T   T   T
  0.5000000000000000  0.5000000000000000  0.4463730000000012   F   F   F
  0.2877278697931756  0.7848930145182440  0.8292918685523526   T   T   T
  0.4354256144428390  0.8542660115835609  0.8261856355569522   T   T   T
 
  0.00000000E+00  0.00000000E+00  0.00000000E+00
  0.00000000E+00  0.00000000E+00  0.00000000E+00
  0.00000000E+00  0.00000000E+00  0.00000000E+00
  0.00000000E+00  0.00000000E+00  0.00000000E+00
  0.00000000E+00  0.00000000E+00  0.00000000E+00
  0.00000000E+00  0.00000000E+00  0.00000000E+00
  0.00000000E+00  0.00000000E+00  0.00000000E+00
  0.00000000E+00  0.00000000E+00  0.00000000E+00
  0.00000000E+00  0.00000000E+00  0.00000000E+00
  0.00000000E+00  0.00000000E+00  0.00000000E+00
  0.00000000E+00  0.00000000E+00  0.00000000E+00
  0.00000000E+00  0.00000000E+00  0.00000000E+00
  0.00000000E+00  0.00000000E+00  0.00000000E+00
  0.00000000E+00  0.00000000E+00  0.00000000E+00
  0.00000000E+00  0.00000000E+00  0.00000000E+00
  0.00000000E+00  0.00000000E+00  0.00000000E+00
  0.00000000E+00  0.00000000E+00  0.00000000E+00
  0.00000000E+00  0.00000000E+00  0.00000000E+00
