Y4 Sn12 H2 N1                           
   1.00000000000000     
     6.6593689999999999    0.0000000000000000    0.0000000000000000
     3.3296850000000000    5.7671830000000002    0.0000000000000000
     0.0000000000000000    0.0000000000000000   23.1560279999999992
   Y    Sn   H    N 
     4    12     2     1
Selective dynamics
Direct
  0.3333330000000032  0.3333330000000032  0.3238899999999987   F   F   F
  0.6632729999999967  0.6676360000000017  0.5513600000000025   F   F   F
  0.0000000000000000  0.0000000000000000  0.4412969999999987   F   F   F
  0.3306770000000014  0.3341929999999991  0.6806569999999965   F   F   F
  0.8333330000000032  0.3333330000000032  0.3238899999999987   F   F   F
  0.3333330000000032  0.8333330000000032  0.3238899999999987   F   F   F
  0.8333330000000032  0.8333330000000032  0.3238899999999987   F   F   F
  0.8262909999999977  0.3444119999999984  0.6765940000000015   F   F   F
  0.1578659999999985  0.6782430000000019  0.5618490000000023   F   F   F
  0.5000000000000000  0.0000000000000000  0.4412969999999987   F   F   F
  0.3439639999999997  0.8276129999999995  0.6761970000000019   F   F   F
  0.6759569999999968  0.1612269999999967  0.5616300000000010   F   F   F
  0.0000000000000000  0.5000000000000000  0.4412969999999987   F   F   F
  0.8276940000000010  0.8308310000000034  0.6769480000000030   F   F   F
  0.1582140000000010  0.1630240000000001  0.5617099999999979   F   F   F
  0.5000000000000000  0.5000000000000000  0.4412969999999987   F   F   F
  0.3134969999999981  0.2221570000000028  0.7989540000000019   T   T   T
  0.3911859999999976  0.4210270000000023  0.7984399999999994   T   T   T
  0.3466239999999985  0.3251259999999973  0.7716212940138123   T   T   T
 
  0.00000000E+00  0.00000000E+00  0.00000000E+00
  0.00000000E+00  0.00000000E+00  0.00000000E+00
  0.00000000E+00  0.00000000E+00  0.00000000E+00
  0.00000000E+00  0.00000000E+00  0.00000000E+00
  0.00000000E+00  0.00000000E+00  0.00000000E+00
  0.00000000E+00  0.00000000E+00  0.00000000E+00
  0.00000000E+00  0.00000000E+00  0.00000000E+00
  0.00000000E+00  0.00000000E+00  0.00000000E+00
  0.00000000E+00  0.00000000E+00  0.00000000E+00
  0.00000000E+00  0.00000000E+00  0.00000000E+00
  0.00000000E+00  0.00000000E+00  0.00000000E+00
  0.00000000E+00  0.00000000E+00  0.00000000E+00
  0.00000000E+00  0.00000000E+00  0.00000000E+00
  0.00000000E+00  0.00000000E+00  0.00000000E+00
  0.00000000E+00  0.00000000E+00  0.00000000E+00
  0.00000000E+00  0.00000000E+00  0.00000000E+00
  0.00000000E+00  0.00000000E+00  0.00000000E+00
  0.00000000E+00  0.00000000E+00  0.00000000E+00
  0.00000000E+00  0.00000000E+00  0.00000000E+00
