Y4 Sn12 H3 N1                           
   1.00000000000000     
     6.6593689999999999    0.0000000000000000    0.0000000000000000
     3.3296850000000000    5.7671830000000002    0.0000000000000000
     0.0000000000000000    0.0000000000000000   23.1560279999999992
   Y    Sn   H    N 
     4    12     3     1
Selective dynamics
Direct
  0.3333330000000032  0.3333330000000032  0.3238899999999987   F   F   F
  0.6666639999999973  0.6666650000000018  0.5521299999999982   F   F   F
  0.0000000000000000  0.0000000000000000  0.4412969999999987   F   F   F
  0.3333330000000032  0.3333319999999986  0.6654920000000004   F   F   F
  0.8333330000000032  0.3333330000000032  0.3238899999999987   F   F   F
  0.3333330000000032  0.8333330000000032  0.3238899999999987   F   F   F
  0.8333330000000032  0.8333330000000032  0.3238899999999987   F   F   F
  0.8270890000000009  0.3458139999999972  0.6774059999999977   F   F   F
  0.1602779999999981  0.6794370000000001  0.5590419999999980   F   F   F
  0.5000000000000000  0.0000000000000000  0.4412969999999987   F   F   F
  0.3458120000000022  0.8270899999999983  0.6774059999999977   F   F   F
  0.6794349999999980  0.1602800000000002  0.5590419999999980   F   F   F
  0.0000000000000000  0.5000000000000000  0.4412969999999987   F   F   F
  0.8270910000000029  0.8270910000000029  0.6774059999999977   F   F   F
  0.1602779999999981  0.1602790000000027  0.5590410000000006   F   F   F
  0.5000000000000000  0.5000000000000000  0.4412969999999987   F   F   F
  0.2501000000000033  0.4998250000000013  0.7888700000000028   T   T   T
  0.2500810000000016  0.2500810000000016  0.7888719999999978   T   T   T
  0.4998039999999975  0.2501079999999973  0.7888689999999983   T   T   T
  0.3333909999999989  0.3333470000000033  0.7724332940138087   T   T   T
 
  0.00000000E+00  0.00000000E+00  0.00000000E+00
  0.00000000E+00  0.00000000E+00  0.00000000E+00
  0.00000000E+00  0.00000000E+00  0.00000000E+00
  0.00000000E+00  0.00000000E+00  0.00000000E+00
  0.00000000E+00  0.00000000E+00  0.00000000E+00
  0.00000000E+00  0.00000000E+00  0.00000000E+00
  0.00000000E+00  0.00000000E+00  0.00000000E+00
  0.00000000E+00  0.00000000E+00  0.00000000E+00
  0.00000000E+00  0.00000000E+00  0.00000000E+00
  0.00000000E+00  0.00000000E+00  0.00000000E+00
  0.00000000E+00  0.00000000E+00  0.00000000E+00
  0.00000000E+00  0.00000000E+00  0.00000000E+00
  0.00000000E+00  0.00000000E+00  0.00000000E+00
  0.00000000E+00  0.00000000E+00  0.00000000E+00
  0.00000000E+00  0.00000000E+00  0.00000000E+00
  0.00000000E+00  0.00000000E+00  0.00000000E+00
  0.00000000E+00  0.00000000E+00  0.00000000E+00
  0.00000000E+00  0.00000000E+00  0.00000000E+00
  0.00000000E+00  0.00000000E+00  0.00000000E+00
  0.00000000E+00  0.00000000E+00  0.00000000E+00
